import numpy as np

molecule ammonia {
    0 1
N            .000000     .000000     .116489
H           .000000     .939731    -.271808
H            .813831    -.469865    -.271808
H           -.813831    -.469865    -.271808
units angstrom
}

set {
	basis STO-3G
	reference rhf
	}

wfn = Wavefunction.build(ammonia,get_global_option('basis'))

mints=MintsHelper(wfn.basisset())
E = energy('scf')
S = mints.ao_overlap()
T = mints.ao_kinetic()
V = mints.ao_potential()
I = mints.ao_eri()
Enuc = ammonia.nuclear_repulsion_energy()

S_array = S.to_array()
T_array = T.to_array()
V_array = V.to_array()
I_array = I.to_array()

np.save('s',S_array)
np.save('t',T_array)
np.save('v',V_array)
np.save('eri',I_array)
np.save('enuc',Enuc)
print(E)
print(mints.nbf())
